data/CVRPLIB/Vrp-Set-XML100/instances/XML100_3113_02.vrp
NAME : XML100_3113_02
COMMENT : Generated by Queiroga, Sadykov, Uchoa, and Vidal (2021)
TYPE : CVRP
DIMENSION : 101
EDGE_WEIGHT_TYPE : EUC_2D
CAPACITY : 9
NODE_COORD_SECTION
1    0    0   
2    464  966 
3    826  314 
4    143  799 
5    316  931 
6    567  853 
7    207  297 
8    808  881 
9    561  420 
10   183  733 
11   81   753 
12   427  320 
13   362  664 
14   816  474 
15   335  68  
16   133  862 
17   629  34  
18   108  856 
19   123  670 
20   759  295 
21   421  958 
22   746  190 
23   540  17  
24   862  341 
25   972  125 
26   328  603 
27   847  542 
28   794  981 
29   301  429 
30   361  841 
31   196  214 
32   807  145 
33   147  691 
34   0    354 
35   519  972 
36   507  66  
37   23   508 
38   305  64  
39   830  322 
40   13   295 
41   680  679 
42   671  789 
43   640  546 
44   529  966 
45   426  900 
46   606  469 
47   815  885 
48   651  826 
49   141  307 
50   68   853 
51   854  236 
52   414  392 
53   538  457 
54   988  833 
55   928  580 
56   585  850 
57   280  554 
58   78   432 
59   852  426 
60   933  236 
61   406  751 
62   736  988 
63   864  129 
64   929  693 
65   834  553 
66   978  235 
67   249  137 
68   115  30  
69   611  845 
70   300  826 
71   818  293 
72   170  408 
73   919  341 
74   329  350 
75   419  612 
76   919  103 
77   519  162 
78   677  734 
79   597  26  
80   613  5   
81   750  292 
82   32   337 
83   259  934 
84   52   878 
85   552  298 
86   309  941 
87   881  930 
88   524  401 
89   165  85  
90   939  270 
91   445  558 
92   288  3   
93   372  849 
94   682  988 
95   171  368 
96   691  782 
97   580  56  
98   918  481 
99   518  389 
100  232  801 
101  989  600 
DEMAND_SECTION
1    0   
2    1   
3    1   
4    1   
5    1   
6    1   
7    1   
8    1   
9    1   
10   1   
11   1   
12   1   
13   1   
14   1   
15   1   
16   1   
17   1   
18   1   
19   1   
20   1   
21   1   
22   1   
23   1   
24   1   
25   1   
26   1   
27   1   
28   1   
29   1   
30   1   
31   1   
32   1   
33   1   
34   1   
35   1   
36   1   
37   1   
38   1   
39   1   
40   1   
41   1   
42   1   
43   1   
44   1   
45   1   
46   1   
47   1   
48   1   
49   1   
50   1   
51   1   
52   1   
53   1   
54   1   
55   1   
56   1   
57   1   
58   1   
59   1   
60   1   
61   1   
62   1   
63   1   
64   1   
65   1   
66   1   
67   1   
68   1   
69   1   
70   1   
71   1   
72   1   
73   1   
74   1   
75   1   
76   1   
77   1   
78   1   
79   1   
80   1   
81   1   
82   1   
83   1   
84   1   
85   1   
86   1   
87   1   
88   1   
89   1   
90   1   
91   1   
92   1   
93   1   
94   1   
95   1   
96   1   
97   1   
98   1   
99   1   
100  1   
101  1   
DEPOT_SECTION
1
-1
EOF
