data/CVRPLIB/Vrp-Set-XML100/solutions/XML100_3113_02.sol
Route #1: 67
Route #2: 39 81 33 57 71 94 48 30 88
Route #3: 40 77 95 41 47 68 55 5 74
Route #4: 31 62 75 24 65 59 89 72 23
Route #5: 13 58 97 100 54 26 64 42 45
Route #6: 37 14 35 96 16 79 78 22 91
Route #7: 84 80 19 38 2 70 50 21 76
Route #8: 9 99 69 29 92 60 12 25 28
Route #9: 18 32 3 15 17 83 49 10 36
Route #10: 6 73 51 52 8 87 98 11 66
Route #11: 82 85 4 20 1 34 43 44 56
Route #12: 90 93 61 27 7 46 86 53 63
Cost 22116
